Ti  B                                   
   1.00000000000000     
     3.0329352316422122    0.0000000000000000    0.0000000000000000
    -1.5164676158211061    2.6265989586349963   -0.0393989843795249
     0.0000000000000000   -0.0483853426850706    3.1289188269678991
   Ti   B 
     1     2
Direct
  0.0000000000000000  0.0000000000000000  0.0000000000000000
  0.3334013293310035  0.6668026586619999  0.5000099074315973
  0.6665986706689965  0.3331973413380001  0.4999900925684026
 
  0.00000000E+00  0.00000000E+00  0.00000000E+00
  0.00000000E+00  0.00000000E+00  0.00000000E+00
  0.00000000E+00  0.00000000E+00  0.00000000E+00
