Au Se                                   
   1.00000000000000     
     3.7156499046125018    0.0000000000000000    0.0000000000000000
     0.0000000000000000    6.3293944118972885   -0.0141747079967324
     0.0000000000000000   -0.0507219067120214   22.6235375273126600
   Au   Se
     2     2
Direct
  0.5000000000000000  0.6082858261093165  0.4999999512116347
  0.0000000000000000  0.1082859322874725  0.5000000692333586
  0.0000000000000000  0.7819997444978916  0.4433002306461351
  0.0000000000000000  0.4345721934567204  0.5566997489133124
 
  0.00000000E+00  0.00000000E+00  0.00000000E+00
  0.00000000E+00  0.00000000E+00  0.00000000E+00
  0.00000000E+00  0.00000000E+00  0.00000000E+00
  0.00000000E+00  0.00000000E+00  0.00000000E+00
