 C 
 1.0000000000000000
     1.2342069117789072   -2.1377144569771240    0.0000000000000000
     1.2342069117789072    2.1377144569771240    0.0000000000000000
     0.0000000000000000    0.0000000000000000   15.5223937425844642
   C
   2
Direct
  0.6666676218347583  0.3333323781652417  0.5000000000000000
  0.3333323781652419  0.6666676218347584  0.5000000000000000
