Ti  B                                   
   1.00000000000000     
     3.1239232885914787    0.0000000000000000    0.0000000000000000
    -1.5619616442957394    2.6265989586349963    0.0000000000000000
     0.0000000000000000    0.0000000000000000    3.2256895123380405
   Ti   B 
     1     2
Direct
  0.0000000000000000  0.0000000000000000  0.0000000000000000
  0.3329141515440688  0.6658283030881306  0.5000000000000000
  0.6670858484559311  0.3341716969118694  0.5000000000000000
 
  0.00000000E+00  0.00000000E+00  0.00000000E+00
  0.00000000E+00  0.00000000E+00  0.00000000E+00
  0.00000000E+00  0.00000000E+00  0.00000000E+00
