 B Ti 
 1.0000000000000000
     3.1239232885914787    0.0000000000000000    0.0000000000000000
    -1.5619616442957394    2.6265989586349963    0.0000000000000000
     0.0000000000000000    0.0000000000000000    3.2256895123380405
   B  Ti
   2   1
Direct
  0.3333333333333357  0.6666666666666643  0.5000000000000000
  0.6666666666666643  0.3333333333333357  0.5000000000000000
  0.0000000000000000  0.0000000000000000  0.0000000000000000
