Ti  B                                   
   1.00000000000000     
     3.0329352316422122    0.0000000000000000    0.0000000000000000
    -1.5164676158211061    2.6265989586349963    0.0393989843795249
     0.0000000000000000    0.0483853426850706    3.3224601977081818
   Ti   B 
     1     2
Direct
  0.0000000000000000  0.0000000000000000  0.0000000000000000
  0.3333333333333357  0.6666666666666643  0.5000000000000000
  0.6666666666666643  0.3333333333333357  0.5000000000000000
 
  0.00000000E+00  0.00000000E+00  0.00000000E+00
  0.00000000E+00  0.00000000E+00  0.00000000E+00
  0.00000000E+00  0.00000000E+00  0.00000000E+00
