Ti  B 
 1.0000000000000000
     3.0329703935968326    0.0000000000000000    0.0000000000000000
    -1.5164851967984163    2.6266294097809446    0.0000000000000000
     0.0000000000000000    0.0000000000000000    3.2258813827162820
  Ti   B
   1   2
Direct
  0.0000000000000000  0.0000000000000000  0.0000000000000000
  0.3333333333333333  0.6666666666666669  0.4999999999999999
  0.6666666666666669  0.3333333333333333  0.4999999999999999
