 C                                      
   1.00000000000000     
     1.1601544970721727   -2.1377144569771240    0.0000000000000000
     1.1601544970721727    2.1377144569771240    0.0000000000000000
     0.0000000000000000    0.0000000000000000   15.5223937425844642
   C 
     2
Direct
  0.6646200618118789  0.3353799381881211  0.5000000000000000
  0.3353799381881282  0.6646200618118789  0.5000000000000000
 
  0.00000000E+00  0.00000000E+00  0.00000000E+00
  0.00000000E+00  0.00000000E+00  0.00000000E+00
