 C                                      
   1.00000000000000     
     1.2712331191322743   -2.1377144569771240    0.0000000000000000
     1.2712331191322743    2.1377144569771240    0.0000000000000000
     0.0000000000000000    0.0000000000000000   15.5223937425844642
   C 
     2
Direct
  0.6674187533052156  0.3325812466947844  0.5000000000000000
  0.3325812466947916  0.6674187533052156  0.5000000000000000
 
  0.00000000E+00  0.00000000E+00  0.00000000E+00
  0.00000000E+00  0.00000000E+00  0.00000000E+00
