Ca Mo  O                                
   1.00000000000000     
     5.2967074219475005    0.0000000061010942    0.0000000000000888
    -0.0000000049780073    5.2967074219474997    0.0000000000000888
     2.6483537079204265    2.6483537134599682    5.7969467308516061
   Ca   Mo   O 
     2     2     8
Direct
  0.8750000000000000  0.6250000000000000  0.2500000000000000
  0.1250000000000000  0.3750000000000000  0.7500000000000000
  0.3750000000000000  0.1250000000000000  0.2500000000000000
  0.6250000000000000  0.8750000000000000  0.7500000000000000
  0.4382585891460501  0.2856053828262909  0.4191959739131167
  0.1425444369408356  0.7951976432605876  0.4191979739131188
  0.2951976432605878  0.9382585891460503  0.9191969739131141
  0.7856053828262908  0.6425444369408356  0.9191969739131141
  0.5617414108539497  0.7143946171737092  0.5808040260868834
  0.8574555630591644  0.2048023567394122  0.5808020260868814
  0.7048023567394124  0.0617414108539498  0.0808030260868858
  0.2143946171737091  0.3574555630591644  0.0808030260868858
 
  0.00000000E+00  0.00000000E+00  0.00000000E+00
  0.00000000E+00  0.00000000E+00  0.00000000E+00
  0.00000000E+00  0.00000000E+00  0.00000000E+00
  0.00000000E+00  0.00000000E+00  0.00000000E+00
  0.00000000E+00  0.00000000E+00  0.00000000E+00
  0.00000000E+00  0.00000000E+00  0.00000000E+00
  0.00000000E+00  0.00000000E+00  0.00000000E+00
  0.00000000E+00  0.00000000E+00  0.00000000E+00
  0.00000000E+00  0.00000000E+00  0.00000000E+00
  0.00000000E+00  0.00000000E+00  0.00000000E+00
  0.00000000E+00  0.00000000E+00  0.00000000E+00
  0.00000000E+00  0.00000000E+00  0.00000000E+00
