graphene                                
   2.45999999999999996     
     0.5017101267393932   -0.8689896166573675    0.0000000000000000
     0.5017101267393932    0.8689896166573675    0.0000000000000000
     0.0000000000000000    0.0000000000000000   6.3099161555221404
   C 
     2
Direct
  0.0000026218347600  0.9999973781652400  0.5000000000000000
  0.6666673781652435  0.3333326218347565  0.5000000000000000

  0.00000000E+00  0.00000000E+00  0.00000000E+00
  0.00000000E+00  0.00000000E+00  0.00000000E+00
