 C                                      
   1.00000000000000     
     1.2345698432410146   -2.1383388115360376    0.0000000000000000
     1.2345698432410146    2.1383388115360376    0.0000000000000000
     0.0000000000000000    0.0000000000000000   15.5904549464750986
   C 
     2
Direct
  0.6666666415726255  0.3333333584273248  0.5000000000000000
  0.3333333584273319  0.6666666415726255  0.5000000000000000
 
  0.00000000E+00  0.00000000E+00  0.00000000E+00
  0.00000000E+00  0.00000000E+00  0.00000000E+00
