Ti  B                                   
   1.00000000000000     
     3.0329703935968326    0.0000000000000000    0.0000000000000000
    -1.5164851967984163    2.6266294097809446   -0.0000000000000000
    -0.0000000000000000   -0.0000000000000000    3.2258813827162820
   Ti   B 
     1     2
Direct
 -0.0000000000000000 -0.0000000000000000  0.0000000000000000
  0.3333333333333357  0.6666666666666643  0.5000000000000000
  0.6666666666666643  0.3333333333333357  0.5000000000000000
 
  0.00000000E+00  0.00000000E+00  0.00000000E+00
  0.00000000E+00  0.00000000E+00  0.00000000E+00
  0.00000000E+00  0.00000000E+00  0.00000000E+00
