Al  O                                   
   1.00000000000000     
     2.4028505166964962    1.3872863926371535    4.3706283330008233
    -2.4028505166964962    1.3872863926371535    4.3706283330008233
     0.0000000000000000   -2.7745727852743070    4.3706283330008233
   Al   O 
     4     6
Direct
  0.1478250738086473  0.1478250738086473  0.1478250738086473
  0.3521749261913527  0.3521749261913527  0.3521749261913527
  0.6478250738086473  0.6478250738086473  0.6478250738086473
  0.8521749261913527  0.8521749261913527  0.8521749261913527
  0.9438449328719400  0.2500000000000000  0.5561550671280600
  0.4438449328719400  0.0561550671280600  0.7500000000000000
  0.5561550671280600  0.9438449328719400  0.2500000000000000
  0.2500000000000000  0.5561550671280600  0.9438449328719400
  0.7500000000000000  0.4438449328719400  0.0561550671280600
  0.0561550671280600  0.7500000000000000  0.4438449328719400
 
  0.00000000E+00  0.00000000E+00  0.00000000E+00
  0.00000000E+00  0.00000000E+00  0.00000000E+00
  0.00000000E+00  0.00000000E+00  0.00000000E+00
  0.00000000E+00  0.00000000E+00  0.00000000E+00
  0.00000000E+00  0.00000000E+00  0.00000000E+00
  0.00000000E+00  0.00000000E+00  0.00000000E+00
  0.00000000E+00  0.00000000E+00  0.00000000E+00
  0.00000000E+00  0.00000000E+00  0.00000000E+00
  0.00000000E+00  0.00000000E+00  0.00000000E+00
  0.00000000E+00  0.00000000E+00  0.00000000E+00
