Cu                                      
   1.00000000000000     
     3.6341504378603089   -0.0000000000000000    0.0000000000000000
     0.0000000000000000    3.6341504378603089   -0.0000000000000000
     0.0000000000000000    0.0000000000000000    3.6341504378603084
   Cu
     4
Direct
  0.0000000000000000 -0.0000000000000000 -0.0000000000000000
 -0.0000000000000000  0.5000000000000000  0.5000000000000000
  0.5000000000000000 -0.0000000000000000  0.5000000000000000
  0.5000000000000000  0.5000000000000000  0.0000000000000000
 
  0.00000000E+00  0.00000000E+00  0.00000000E+00
  0.00000000E+00  0.00000000E+00  0.00000000E+00
  0.00000000E+00  0.00000000E+00  0.00000000E+00
  0.00000000E+00  0.00000000E+00  0.00000000E+00
