Ti Si                                   
   1.00000000000000     
     2.4011652123311671   -4.1294995047675025    0.0000000000000000
     2.4011652123311671    4.1294995047675025    0.0000000000000000
    -2.4011538085470536    0.0000000000000000    4.2791212381691279
   Ti   Si
     2     4
Direct
  0.8749998621622552  0.1250001378377448  0.2500000000000000
  0.1250001378377448  0.8749998621622552  0.7500000000000000
  0.2117753001973810  0.7882246998026190  0.2500000000000000
  0.7882246998026190  0.2117753001973810  0.7500000000000000
  0.4617749048498183  0.5382250951501817  0.7500000000000000
  0.5382250951501817  0.4617749048498183  0.2500000000000000
 
  0.00000000E+00  0.00000000E+00  0.00000000E+00
  0.00000000E+00  0.00000000E+00  0.00000000E+00
  0.00000000E+00  0.00000000E+00  0.00000000E+00
  0.00000000E+00  0.00000000E+00  0.00000000E+00
  0.00000000E+00  0.00000000E+00  0.00000000E+00
  0.00000000E+00  0.00000000E+00  0.00000000E+00
