 C                                      
   1.00000000000000     
     1.3082593264856417   -2.1377144569771240    0.0000000000000000
     1.3082593264856417    2.1377144569771240    0.0000000000000000
     0.0000000000000000    0.0000000000000000   15.5223937425844642
   C 
     2
Direct
  0.6674098123250132  0.3325901876749868  0.5000000000000000
  0.3325901876749939  0.6674098123250132  0.5000000000000000
 
  0.00000000E+00  0.00000000E+00  0.00000000E+00
  0.00000000E+00  0.00000000E+00  0.00000000E+00
