Ti  B                                   
   1.00000000000000     
     2.9419471746929458    0.0000000000000000    0.0000000000000000
    -1.4709735873464729    2.6265989586349963    0.0000000000000000
     0.0000000000000000    0.0000000000000000    3.2256895123380405
   Ti   B 
     1     2
Direct
  0.0000000000000000  0.0000000000000000  0.0000000000000000
  0.3340247237423007  0.6680494474845943  0.5000000000000000
  0.6659752762576994  0.3319505525154058  0.5000000000000000
 
  0.00000000E+00  0.00000000E+00  0.00000000E+00
  0.00000000E+00  0.00000000E+00  0.00000000E+00
  0.00000000E+00  0.00000000E+00  0.00000000E+00
