Ti  B                                   
   1.00000000000000     
     2.8509591177436793    0.0000000000000000    0.0000000000000000
    -1.4254795588718396    2.6265989586349963    0.0000000000000000
     0.0000000000000000    0.0000000000000000    3.2256895123380405
   Ti   B 
     1     2
Direct
  0.0000000000000000  0.0000000000000000  0.0000000000000000
  0.3350540976109768  0.6701081952219464  0.5000000000000000
  0.6649459023890234  0.3298918047780536  0.5000000000000000
 
  0.00000000E+00  0.00000000E+00  0.00000000E+00
  0.00000000E+00  0.00000000E+00  0.00000000E+00
  0.00000000E+00  0.00000000E+00  0.00000000E+00
