 B Ti 
 1.0000000000000000
     2.8509591177436793    0.0000000000000000    0.0000000000000000
    -1.4254795588718396    2.6265989586349963    0.0000000000000000
     0.0000000000000000    0.0000000000000000    3.2256895123380405
   B  Ti
   2   1
Direct
  0.3333333333333356  0.6666666666666643  0.5000000000000000
  0.6666666666666642  0.3333333333333357  0.5000000000000000
  0.0000000000000000  0.0000000000000000  0.0000000000000000
