Ti  B                                   
   1.00000000000000     
     3.2149113455407452    0.0000000000000000    0.0000000000000000
    -1.6074556727703726    2.6265989586349963    0.0000000000000000
     0.0000000000000000    0.0000000000000000    3.2256895123380405
   Ti   B 
     1     2
Direct
 -0.0000000000000000 -0.0000000000000000  0.0000000000000000
  0.3327282522813516  0.6654565045626961  0.5000000000000000
  0.6672717477186485  0.3345434954373039  0.5000000000000000
 
  0.00000000E+00  0.00000000E+00  0.00000000E+00
  0.00000000E+00  0.00000000E+00  0.00000000E+00
  0.00000000E+00  0.00000000E+00  0.00000000E+00
