TMMs
   1.00000000000000
     3.9928166178769899    0.0000000000000000    0.0000000000000000
     0.0000000000000000    4.2722969665537480    0.0000000000000000
     0.0000000000000000    0.0000000000000000   12.1873798677391427
   Ge   Se
     2     2
Direct
  0.7499999839999987  0.6115605211153257  0.1507711956393447
  0.2500000000000000  0.1115605211153258  0.3492287933606580
  0.7499999839999987  0.5216184818846765  0.3565822086663595
  0.2500000000000000  0.0216185348846772  0.1434178133336352
