Ti  B                                   
   1.00000000000000     
     3.0329352316422122    0.0000000000000000    0.0000000000000000
    -1.5164676158211061    2.6265989586349963    0.0787979687590499
     0.0000000000000000    0.0967706853701412    3.4192308830783231
   Ti   B 
     1     2
Direct
  0.0000000000000000  0.0000000000000000 -0.0000000000000000
  0.3334376166127695  0.6668752332255320  0.4999568031781838
  0.6665623833872305  0.3331247667744681  0.5000431968218163
 
  0.00000000E+00  0.00000000E+00  0.00000000E+00
  0.00000000E+00  0.00000000E+00  0.00000000E+00
  0.00000000E+00  0.00000000E+00  0.00000000E+00
