 Graphene
   1.00000000000000
     2.4660000000000002    0.0000000000000000    0.0000000000000000
     1.2330000000000001    2.1356186457300002    0.0000000000000000
     0.0000000000000000    0.0000000000000000   20.0000000000000000
   C
     2
Direct
  0.0000000000000000  0.0000000000000000  0.5000000000000000
  0.3333333333352613  0.3333333333352613  0.5000000000000000

  0.00000000E+00  0.00000000E+00  0.00000000E+00
  0.00000000E+00  0.00000000E+00  0.00000000E+00

