Al  O                                   
   1.00000000000000     
     2.4028505166964966    1.3872863926371537    4.3706283330008233
    -2.4028505166964966    1.3872863926371537    4.3706283330008233
     0.0000000000000000   -2.7745727852743074    4.3706283330008233
   Al   O 
     4     6
Direct
  0.6478250738086506  0.6478250738086506  0.6478250738086506
  0.8521749261913494  0.8521749261913494  0.8521749261913494
  0.1478250738086507  0.1478250738086507  0.1478250738086507
  0.3521749261913493  0.3521749261913493  0.3521749261913493
  0.4438449328719429  0.7500000000000000  0.0561550671280571
  0.9438449328719430  0.5561550671280570  0.2500000000000000
  0.0561550671280571  0.4438449328719429  0.7500000000000000
  0.7500000000000000  0.0561550671280571  0.4438449328719429
  0.2500000000000000  0.9438449328719430  0.5561550671280570
  0.5561550671280570  0.2500000000000000  0.9438449328719430
 
  0.00000000E+00  0.00000000E+00  0.00000000E+00
  0.00000000E+00  0.00000000E+00  0.00000000E+00
  0.00000000E+00  0.00000000E+00  0.00000000E+00
  0.00000000E+00  0.00000000E+00  0.00000000E+00
  0.00000000E+00  0.00000000E+00  0.00000000E+00
  0.00000000E+00  0.00000000E+00  0.00000000E+00
  0.00000000E+00  0.00000000E+00  0.00000000E+00
  0.00000000E+00  0.00000000E+00  0.00000000E+00
  0.00000000E+00  0.00000000E+00  0.00000000E+00
  0.00000000E+00  0.00000000E+00  0.00000000E+00
