Ti  B                                   
   1.00000000000000     
     3.0329352316422122    0.0000000000000000    0.0000000000000000
    -1.5164676158211061    2.6265989586349963   -0.0787979687590499
     0.0000000000000000   -0.0967706853701412    3.0321481415977578
   Ti   B 
     1     2
Direct
  0.0000000000000000  0.0000000000000000 -0.0000000000000000
  0.3335417330471438  0.6670834660942805  0.5000681382521308
  0.6664582669528561  0.3329165339057195  0.4999318617478691
 
  0.00000000E+00  0.00000000E+00  0.00000000E+00
  0.00000000E+00  0.00000000E+00  0.00000000E+00
  0.00000000E+00  0.00000000E+00  0.00000000E+00
