 C                                      
   1.00000000000000     
     1.1971807044255400   -2.1377144569771240    0.0000000000000000
     1.1971807044255400    2.1377144569771240    0.0000000000000000
     0.0000000000000000    0.0000000000000000   15.5223937425844642
   C 
     2
Direct
  0.6658065722601529  0.3341934277398471  0.5000000000000000
  0.3341934277398542  0.6658065722601529  0.5000000000000000
 
  0.00000000E+00  0.00000000E+00  0.00000000E+00
  0.00000000E+00  0.00000000E+00  0.00000000E+00
