 C 
 1.0000000000000000
     1.1971807044255400   -2.1377144569771240    0.0000000000000000
     1.1971807044255400    2.1377144569771240    0.0000000000000000
     0.0000000000000000    0.0000000000000000   15.5223937425844642
   C
   2
Direct
  0.6666676218347618  0.3333323781652382  0.5000000000000000
  0.3333323781652452  0.6666676218347617  0.5000000000000000
